asp/input/in_40_20_7_3.lp
#const n = 40.
#const k = 20.
#const h = 7.
tile(1,2,13).
tile(2,20,11).
tile(3,5,14).
tile(4,16,19).
tile(5,20,3).
tile(6,8,15).
tile(7,20,17).
tile(8,7,6).
tile(9,20,4).
tile(10,11,7).
tile(11,13,16).
tile(12,11,9).
tile(13,19,12).
tile(14,16,1).
tile(15,10,5).
tile(16,13,4).
tile(17,18,5).
tile(18,18,8).
tile(19,16,13).
tile(20,10,17).
tile(21,20,13).
tile(22,12,9).
tile(23,17,19).
tile(24,5,5).
tile(25,8,9).
tile(26,12,5).
tile(27,13,17).
tile(28,11,8).
tile(29,4,4).
tile(30,6,13).
tile(31,18,1).
tile(32,11,10).
tile(33,13,3).
tile(34,7,5).
tile(35,18,12).
tile(36,4,18).
tile(37,17,7).
tile(38,7,2).
tile(39,20,20).
tile(40,6,17).
