instances/in_40_20_7_3.dzn
n = 40;
k = 20;
h = 7;
tiles = array2d(1..n, 1..2,
[ 2,13
, 20,11
, 5,14
, 16,19
, 20,3
, 8,15
, 20,17
, 7,6
, 20,4
, 11,7
, 13,16
, 11,9
, 19,12
, 16,1
, 10,5
, 13,4
, 18,5
, 18,8
, 16,13
, 10,17
, 20,13
, 12,9
, 17,19
, 5,5
, 8,9
, 12,5
, 13,17
, 11,8
, 4,4
, 6,13
, 18,1
, 11,10
, 13,3
, 7,5
, 18,12
, 4,18
, 17,7
, 7,2
, 20,20
, 6,17
]);